0 509 501 312 1019 736 656 60 1039 726 
509 0 126 474 1526 1226 1133 532 1449 1122 
501 126 0 541 1516 1184 1084 536 1371 1045 
312 474 541 0 1157 980 919 271 1333 1029 
1019 1526 1516 1157 0 478 583 996 858 855 
736 1226 1184 980 478 0 115 740 470 379 
656 1133 1084 919 583 115 0 667 455 288 
60 532 536 271 996 740 667 0 1066 759 
1039 1449 1371 1333 858 470 455 1066 0 328 
726 1122 1045 1029 855 379 288 759 328 0 
